50, 62425
6, 2551
323, 2552
927, 2553
85, 2554
753, 2555
876, 2556
847, 2557
30, 2558
62, 2559
278, 2560
540, 2561
263, 2562
572, 2563
771, 2564
886, 2565
178, 2566
586, 2567
846, 2568
381, 2569
403, 2570
732, 2571
716, 2572
165, 2573
760, 2574
902, 2575
644, 2576
373, 2577
266, 2578
894, 2579
783, 2580
667, 2581
138, 2582
61, 2583
343, 2584
881, 2585
364, 2586
54, 2587
379, 2588
19, 2589
934, 2590
582, 2591
329, 2592
406, 2593
481, 2594
482, 2595
963, 2596
162, 2597
487, 2598
627, 2599
962, 2600
